NAME : swiss42-R-5-1-b.1905.tour
COMMENT : Length = 1905
COMMENT : Found by LKH-3 [Keld Helsgaun] Tue Jul 30 13:14:22 2024
TYPE : TOUR
DIMENSION : 42
TOUR_SECTION
1
35
34
21
36
18
16
7
5
3
10
24
42
26
12
19
15
2
4
28
29
31
40
22
41
25
23
39
30
9
11
13
27
6
14
20
17
38
37
32
8
33
-1
EOF
